toybox/dimacs/toybox-2020-12-06_00-02-46.dimacs
c 1 CONFIG_HELP
c 2 CONFIG_DHCPD
c 3 CONFIG_TCPSVD
c 4 CONFIG_TOYBOX_COPYFILERANGE
c 5 CONFIG_ID_Z
c 6 CONFIG_TOYBOX_PRLIMIT
c 7 CONFIG_UNSHARE
c 8 CONFIG_EGREP
c 9 CONFIG_ID
c 10 CONFIG_RESTORECON
c 11 CONFIG_BOOTCHARTD
c 12 CONFIG_KILL
c 13 CONFIG_TOYBOX_ICONV
c 14 CONFIG_LOG
c 15 CONFIG_MKE2FS_EXTENDED
c 16 CONFIG_SHIFT
c 17 CONFIG_TOYBOX_FIFREEZE
c 18 CONFIG_JOBS
c 19 CONFIG_MKE2FS_GEN
c 20 CONFIG_SHA256SUM
c 21 CONFIG_TOYBOX_SHADOW
c 22 CONFIG_LSPCI
c 23 CONFIG_TOYBOX_FORK
c 24 CONFIG_MKFIFO_Z
c 25 CONFIG_SHA224SUM
c 26 CONFIG_TOYBOX_CONTAINER
c 27 CONFIG_TOYBOX_FORCE_NOMMU
c 28 CONFIG_TOYBOX_UID_USR
c 29 CONFIG_NETCAT_LISTEN
c 30 CONFIG_MKE2FS_LABEL
c 31 CONFIG_SEQ
c 32 CONFIG_NSENTER
c 33 CONFIG_EXPORT
c 34 CONFIG_SORT_FLOAT
c 35 CONFIG_SU
c 36 CONFIG_CD
c 37 CONFIG_TOYBOX_ANDROID_SCHEDPOLICY
c 38 CONFIG_PASSWD_SAD
c 39 CONFIG_EVAL
c 40 CONFIG_UPTIME
c 41 CONFIG_CRONTAB
c 42 CONFIG_MKDIR
c 43 CONFIG_TOYBOX
c 44 CONFIG_TOYBOX_UTMPX
c 45 CONFIG_EXEC
c 46 CONFIG_KILLALL5
c 47 CONFIG_MDEV
c 48 CONFIG_TOYBOX_HELP_DASHDASH
c 49 __Root__
c 50 CONFIG_CHCON
c 51 CONFIG_TOYBOX_LIBCRYPTO
c 52 CONFIG_TIME
c 53 CONFIG_W
c 54 CONFIG_KLOGD_SOURCE_RING_BUFFER
c 55 CONFIG_SULOGIN
c 56 CONFIG_FGREP
c 57 CONFIG_SENDEVENT
c 58 CONFIG_MDEV_CONF
c 59 CONFIG_NBD_CLIENT
c 60 CONFIG_LOAD_POLICY
c 61 CONFIG_MKDIR_Z
c 62 CONFIG_TOYBOX_UID_SYS
c 63 CONFIG_SETENFORCE
c 64 CONFIG_LOGIN
c 65 CONFIG_FSFREEZE
c 66 CONFIG_ULIMIT
c 67 CONFIG_MKNOD_Z
c 68 CONFIG_GREP
c 69 CONFIG_WHO
c 70 CONFIG_LSPCI_TEXT
c 71 CONFIG_RUNCON
c 72 CONFIG_TOYBOX_LSM_NONE
c 73 CONFIG_CAT
c 74 CONFIG_TOYBOX_SELINUX
c 75 CONFIG_KLOGD
c 76 CONFIG_MKE2FS
c 77 CONFIG_OPENVT
c 78 CONFIG_ICONV
c 79 CONFIG_GETENFORCE
c 80 CONFIG_TOYBOX_FLOAT
c 81 CONFIG_TOYBOX_HELP
c 82 CONFIG_MKNOD
c 83 CONFIG_PASSWD
c 84 CONFIG_SOURCE
c 85 CONFIG_MKPASSWD
c 86 CONFIG_EXIT
c 87 CONFIG_NETCAT
c 88 CONFIG_SHA384SUM
c 89 CONFIG_MKFIFO
c 90 CONFIG_TOYBOX_ON_ANDROID
c 91 CONFIG_UNSET
c 92 CONFIG_TOYBOX_SMACK
c 93 CONFIG_MKE2FS_JOURNAL
c 94 CONFIG_SHA512SUM
c 95 CONFIG_CAT_V
c 96 CONFIG_DEBUG_DHCP
c 97 CONFIG_TOYBOX_GETRANDOM
p cnf 97 189
49 0
49 -20 0
49 -51 0
49 -40 0
49 -44 0
49 -43 0
49 -6 0
49 -26 0
49 -70 0
49 -22 0
49 -74 0
49 -50 0
49 -12 0
49 -46 0
49 -10 0
49 -76 0
49 -30 0
49 -7 0
49 -16 0
49 -45 0
49 -71 0
49 -25 0
49 -78 0
49 -13 0
49 -87 0
49 -29 0
49 -21 0
49 -64 0
49 -85 0
49 -90 0
49 -5 0
49 -9 0
49 -27 0
49 -23 0
49 -72 0
49 -91 0
49 -84 0
49 -59 0
49 -80 0
49 -52 0
49 -77 0
49 -34 0
49 -67 0
49 -31 0
49 -92 0
49 -93 0
49 -94 0
49 -81 0
49 -1 0
49 -65 0
49 -17 0
49 -83 0
49 -14 0
49 -86 0
49 -28 0
49 -41 0
49 -2 0
49 -96 0
49 -82 0
49 -18 0
49 -95 0
49 -73 0
49 -48 0
49 -56 0
49 -68 0
49 -3 0
49 -62 0
49 -66 0
49 -63 0
49 -8 0
49 -61 0
49 -4 0
49 -37 0
49 -19 0
49 -36 0
49 -33 0
49 -57 0
49 -38 0
49 -24 0
49 -35 0
49 -88 0
49 -89 0
49 -69 0
49 -53 0
49 -42 0
49 -32 0
49 -55 0
49 -39 0
49 -75 0
49 -54 0
49 -11 0
49 -97 0
49 -58 0
49 -47 0
49 -15 0
49 -79 0
49 -60 0
-20 51 0
-40 44 0
43 0
6 0
26 0
-70 22 0
74 -50 0
12 -46 0
74 -10 0
76 -30 0
-7 26 0
-16 0
-45 0
-71 74 0
-25 51 0
-78 13 0
87 -29 0
21 -64 0
-85 -90 0
-5 9 0
-27 -23 0
-5 -72 0
5 -9 72 0
-91 0
-84 0
23 -59 0
80 -52 0
-77 23 0
-80 34 0
-67 -72 0
-31 80 0
-74 -92 0
76 -93 0
-94 51 0
81 -1 0
-74 -72 0
-65 17 0
21 -83 0
17 0
44 0
90 -14 0
74 72 92 0
-86 0
28 0
23 -41 0
2 -96 0
67 -82 72 0
-18 0
-95 73 0
81 -48 0
56 -68 0
23 -3 0
62 0
6 -66 0
74 -63 0
-8 68 0
21 0
-56 68 0
-61 -72 0
-4 0
-37 0
76 -19 0
-36 0
-72 -92 0
13 0
-33 0
-57 90 0
-90 0
83 -38 0
-24 -72 0
-67 82 0
21 -35 0
-88 51 0
-89 24 72 0
-69 44 0
-53 44 0
42 -61 0
8 -68 0
-32 26 0
21 -55 0
-39 0
75 -54 0
27 23 0
23 -11 0
-42 61 72 0
97 0
-58 47 0
-15 76 0
89 -24 0
74 -79 0
-60 74 0
80 -34 0
